
Gurobi 10.0.1 (win64) logging started Thu Oct  5 12:31:37 2023

Set parameter LogFile to value "./results//log/BA_04_deadline_heurTrue.log"
Gurobi Optimizer version 10.0.1 build v10.0.1rc0 (win64)

CPU model: AMD Ryzen 7 3700X 8-Core Processor, instruction set [SSE2|AVX|AVX2]
Thread count: 8 physical cores, 16 logical processors, using up to 16 threads

Optimize a model with 52 rows, 52 columns and 143 nonzeros
Model fingerprint: 0x19e58f0e
Model has 1 quadratic constraint
Variable types: 0 continuous, 52 integer (45 binary)
Coefficient statistics:
  Matrix range     [1e+00, 1e+07]
  QMatrix range    [1e+00, 1e+00]
  QLMatrix range   [1e+00, 5e+00]
  Objective range  [1e+00, 1e+00]
  Bounds range     [1e+00, 1e+00]
  RHS range        [1e+00, 3e+07]

User MIP start did not produce a new incumbent solution
User MIP start violates constraint initial_start_time_job1_stage0_machine1_constraint by 2.000000000

Presolve removed 35 rows and 39 columns
Presolve time: 0.00s
Presolved: 17 rows, 13 columns, 48 nonzeros
Variable types: 0 continuous, 13 integer (6 binary)
Found heuristic solution: objective 77.0000000
Found heuristic solution: objective 63.0000000
Found heuristic solution: objective 60.0000000
Found heuristic solution: objective 57.0000000

Root relaxation: objective 1.400000e+01, 6 iterations, 0.00 seconds (0.00 work units)

    Nodes    |    Current Node    |     Objective Bounds      |     Work
 Expl Unexpl |  Obj  Depth IntInf | Incumbent    BestBd   Gap | It/Node Time

     0     0   14.00000    0    5   57.00000   14.00000  75.4%     -    0s
Another try with MIP start
H    0     0                      55.0000000   26.00000  52.7%     -    0s
     0     0   33.00000    0    3   55.00000   33.00000  40.0%     -    0s
H    0     0                      53.0000000   33.00000  37.7%     -    0s
     0     0   53.00000    0    3   53.00000   53.00000  0.00%     -    0s

Cutting planes:
  Implied bound: 3

Explored 1 nodes (24 simplex iterations) in 0.00 seconds (0.00 work units)
Thread count was 16 (of 16 available processors)

Solution count 6: 53 55 57 ... 77

Optimal solution found (tolerance 1.00e-04)
Best objective 5.300000000000e+01, best bound 5.300000000000e+01, gap 0.0000%
Warning: constraint name "precedence between 0,0 to 0,1 if x_[0,0,0,1,1]=0, i.e. 0,1 before 0,0" has a space
Warning: constraint name "precedence between 0,0 to 0,1 if x_[0,0,0,1,1]=0, i.e. 0,1 before 0,0" has a space
Warning: default constraint names used to write mps file
